sat_in/bonus/33.wcnf
p wcnf 13 43 14
1 -1 0
1 -2 0
1 -3 0
1 -4 0
1 -5 0
1 -6 0
1 -7 0
1 -8 0
1 -9 0
1 -10 0
1 -11 0
1 -12 0
1 -13 0
14 1 3 0
14 1 6 0
14 1 9 0
14 2 5 0
14 2 7 0
14 2 10 0
14 3 4 0
14 3 5 0
14 3 8 0
14 3 12 0
14 4 6 0
14 4 11 0
14 4 13 0
14 5 6 0
14 5 8 0
14 5 11 0
14 6 7 0
14 6 8 0
14 6 10 0
14 6 12 0
14 7 8 0
14 7 10 0
14 7 11 0
14 7 12 0
14 8 9 0
14 8 11 0
14 9 10 0
14 10 13 0
14 11 13 0
14 12 13 0
