sat_in/task3/33.cnf
p cnf 65 995
1 2 3 4 5 6 7 8 9 10 11 12 13 0
-1 -2 0
-1 -3 0
-1 -4 0
-1 -5 0
-1 -6 0
-1 -7 0
-1 -8 0
-1 -9 0
-1 -10 0
-1 -11 0
-1 -12 0
-1 -13 0
-2 -3 0
-2 -4 0
-2 -5 0
-2 -6 0
-2 -7 0
-2 -8 0
-2 -9 0
-2 -10 0
-2 -11 0
-2 -12 0
-2 -13 0
-3 -4 0
-3 -5 0
-3 -6 0
-3 -7 0
-3 -8 0
-3 -9 0
-3 -10 0
-3 -11 0
-3 -12 0
-3 -13 0
-4 -5 0
-4 -6 0
-4 -7 0
-4 -8 0
-4 -9 0
-4 -10 0
-4 -11 0
-4 -12 0
-4 -13 0
-5 -6 0
-5 -7 0
-5 -8 0
-5 -9 0
-5 -10 0
-5 -11 0
-5 -12 0
-5 -13 0
-6 -7 0
-6 -8 0
-6 -9 0
-6 -10 0
-6 -11 0
-6 -12 0
-6 -13 0
-7 -8 0
-7 -9 0
-7 -10 0
-7 -11 0
-7 -12 0
-7 -13 0
-8 -9 0
-8 -10 0
-8 -11 0
-8 -12 0
-8 -13 0
-9 -10 0
-9 -11 0
-9 -12 0
-9 -13 0
-10 -11 0
-10 -12 0
-10 -13 0
-11 -12 0
-11 -13 0
-12 -13 0
14 15 16 17 18 19 20 21 22 23 24 25 26 0
-14 -15 0
-14 -16 0
-14 -17 0
-14 -18 0
-14 -19 0
-14 -20 0
-14 -21 0
-14 -22 0
-14 -23 0
-14 -24 0
-14 -25 0
-14 -26 0
-15 -16 0
-15 -17 0
-15 -18 0
-15 -19 0
-15 -20 0
-15 -21 0
-15 -22 0
-15 -23 0
-15 -24 0
-15 -25 0
-15 -26 0
-16 -17 0
-16 -18 0
-16 -19 0
-16 -20 0
-16 -21 0
-16 -22 0
-16 -23 0
-16 -24 0
-16 -25 0
-16 -26 0
-17 -18 0
-17 -19 0
-17 -20 0
-17 -21 0
-17 -22 0
-17 -23 0
-17 -24 0
-17 -25 0
-17 -26 0
-18 -19 0
-18 -20 0
-18 -21 0
-18 -22 0
-18 -23 0
-18 -24 0
-18 -25 0
-18 -26 0
-19 -20 0
-19 -21 0
-19 -22 0
-19 -23 0
-19 -24 0
-19 -25 0
-19 -26 0
-20 -21 0
-20 -22 0
-20 -23 0
-20 -24 0
-20 -25 0
-20 -26 0
-21 -22 0
-21 -23 0
-21 -24 0
-21 -25 0
-21 -26 0
-22 -23 0
-22 -24 0
-22 -25 0
-22 -26 0
-23 -24 0
-23 -25 0
-23 -26 0
-24 -25 0
-24 -26 0
-25 -26 0
27 28 29 30 31 32 33 34 35 36 37 38 39 0
-27 -28 0
-27 -29 0
-27 -30 0
-27 -31 0
-27 -32 0
-27 -33 0
-27 -34 0
-27 -35 0
-27 -36 0
-27 -37 0
-27 -38 0
-27 -39 0
-28 -29 0
-28 -30 0
-28 -31 0
-28 -32 0
-28 -33 0
-28 -34 0
-28 -35 0
-28 -36 0
-28 -37 0
-28 -38 0
-28 -39 0
-29 -30 0
-29 -31 0
-29 -32 0
-29 -33 0
-29 -34 0
-29 -35 0
-29 -36 0
-29 -37 0
-29 -38 0
-29 -39 0
-30 -31 0
-30 -32 0
-30 -33 0
-30 -34 0
-30 -35 0
-30 -36 0
-30 -37 0
-30 -38 0
-30 -39 0
-31 -32 0
-31 -33 0
-31 -34 0
-31 -35 0
-31 -36 0
-31 -37 0
-31 -38 0
-31 -39 0
-32 -33 0
-32 -34 0
-32 -35 0
-32 -36 0
-32 -37 0
-32 -38 0
-32 -39 0
-33 -34 0
-33 -35 0
-33 -36 0
-33 -37 0
-33 -38 0
-33 -39 0
-34 -35 0
-34 -36 0
-34 -37 0
-34 -38 0
-34 -39 0
-35 -36 0
-35 -37 0
-35 -38 0
-35 -39 0
-36 -37 0
-36 -38 0
-36 -39 0
-37 -38 0
-37 -39 0
-38 -39 0
40 41 42 43 44 45 46 47 48 49 50 51 52 0
-40 -41 0
-40 -42 0
-40 -43 0
-40 -44 0
-40 -45 0
-40 -46 0
-40 -47 0
-40 -48 0
-40 -49 0
-40 -50 0
-40 -51 0
-40 -52 0
-41 -42 0
-41 -43 0
-41 -44 0
-41 -45 0
-41 -46 0
-41 -47 0
-41 -48 0
-41 -49 0
-41 -50 0
-41 -51 0
-41 -52 0
-42 -43 0
-42 -44 0
-42 -45 0
-42 -46 0
-42 -47 0
-42 -48 0
-42 -49 0
-42 -50 0
-42 -51 0
-42 -52 0
-43 -44 0
-43 -45 0
-43 -46 0
-43 -47 0
-43 -48 0
-43 -49 0
-43 -50 0
-43 -51 0
-43 -52 0
-44 -45 0
-44 -46 0
-44 -47 0
-44 -48 0
-44 -49 0
-44 -50 0
-44 -51 0
-44 -52 0
-45 -46 0
-45 -47 0
-45 -48 0
-45 -49 0
-45 -50 0
-45 -51 0
-45 -52 0
-46 -47 0
-46 -48 0
-46 -49 0
-46 -50 0
-46 -51 0
-46 -52 0
-47 -48 0
-47 -49 0
-47 -50 0
-47 -51 0
-47 -52 0
-48 -49 0
-48 -50 0
-48 -51 0
-48 -52 0
-49 -50 0
-49 -51 0
-49 -52 0
-50 -51 0
-50 -52 0
-51 -52 0
53 54 55 56 57 58 59 60 61 62 63 64 65 0
-53 -54 0
-53 -55 0
-53 -56 0
-53 -57 0
-53 -58 0
-53 -59 0
-53 -60 0
-53 -61 0
-53 -62 0
-53 -63 0
-53 -64 0
-53 -65 0
-54 -55 0
-54 -56 0
-54 -57 0
-54 -58 0
-54 -59 0
-54 -60 0
-54 -61 0
-54 -62 0
-54 -63 0
-54 -64 0
-54 -65 0
-55 -56 0
-55 -57 0
-55 -58 0
-55 -59 0
-55 -60 0
-55 -61 0
-55 -62 0
-55 -63 0
-55 -64 0
-55 -65 0
-56 -57 0
-56 -58 0
-56 -59 0
-56 -60 0
-56 -61 0
-56 -62 0
-56 -63 0
-56 -64 0
-56 -65 0
-57 -58 0
-57 -59 0
-57 -60 0
-57 -61 0
-57 -62 0
-57 -63 0
-57 -64 0
-57 -65 0
-58 -59 0
-58 -60 0
-58 -61 0
-58 -62 0
-58 -63 0
-58 -64 0
-58 -65 0
-59 -60 0
-59 -61 0
-59 -62 0
-59 -63 0
-59 -64 0
-59 -65 0
-60 -61 0
-60 -62 0
-60 -63 0
-60 -64 0
-60 -65 0
-61 -62 0
-61 -63 0
-61 -64 0
-61 -65 0
-62 -63 0
-62 -64 0
-62 -65 0
-63 -64 0
-63 -65 0
-64 -65 0
-1 -14 0
-1 -27 0
-1 -40 0
-1 -53 0
-14 -27 0
-14 -40 0
-14 -53 0
-27 -40 0
-27 -53 0
-40 -53 0
-2 -15 0
-2 -28 0
-2 -41 0
-2 -54 0
-15 -28 0
-15 -41 0
-15 -54 0
-28 -41 0
-28 -54 0
-41 -54 0
-3 -16 0
-3 -29 0
-3 -42 0
-3 -55 0
-16 -29 0
-16 -42 0
-16 -55 0
-29 -42 0
-29 -55 0
-42 -55 0
-4 -17 0
-4 -30 0
-4 -43 0
-4 -56 0
-17 -30 0
-17 -43 0
-17 -56 0
-30 -43 0
-30 -56 0
-43 -56 0
-5 -18 0
-5 -31 0
-5 -44 0
-5 -57 0
-18 -31 0
-18 -44 0
-18 -57 0
-31 -44 0
-31 -57 0
-44 -57 0
-6 -19 0
-6 -32 0
-6 -45 0
-6 -58 0
-19 -32 0
-19 -45 0
-19 -58 0
-32 -45 0
-32 -58 0
-45 -58 0
-7 -20 0
-7 -33 0
-7 -46 0
-7 -59 0
-20 -33 0
-20 -46 0
-20 -59 0
-33 -46 0
-33 -59 0
-46 -59 0
-8 -21 0
-8 -34 0
-8 -47 0
-8 -60 0
-21 -34 0
-21 -47 0
-21 -60 0
-34 -47 0
-34 -60 0
-47 -60 0
-9 -22 0
-9 -35 0
-9 -48 0
-9 -61 0
-22 -35 0
-22 -48 0
-22 -61 0
-35 -48 0
-35 -61 0
-48 -61 0
-10 -23 0
-10 -36 0
-10 -49 0
-10 -62 0
-23 -36 0
-23 -49 0
-23 -62 0
-36 -49 0
-36 -62 0
-49 -62 0
-11 -24 0
-11 -37 0
-11 -50 0
-11 -63 0
-24 -37 0
-24 -50 0
-24 -63 0
-37 -50 0
-37 -63 0
-50 -63 0
-12 -25 0
-12 -38 0
-12 -51 0
-12 -64 0
-25 -38 0
-25 -51 0
-25 -64 0
-38 -51 0
-38 -64 0
-51 -64 0
-13 -26 0
-13 -39 0
-13 -52 0
-13 -65 0
-26 -39 0
-26 -52 0
-26 -65 0
-39 -52 0
-39 -65 0
-52 -65 0
-1 -16 0
-14 -3 0
-1 -29 0
-27 -3 0
-1 -42 0
-40 -3 0
-1 -55 0
-53 -3 0
-14 -29 0
-27 -16 0
-14 -42 0
-40 -16 0
-14 -55 0
-53 -16 0
-27 -42 0
-40 -29 0
-27 -55 0
-53 -29 0
-40 -55 0
-53 -42 0
-1 -19 0
-14 -6 0
-1 -32 0
-27 -6 0
-1 -45 0
-40 -6 0
-1 -58 0
-53 -6 0
-14 -32 0
-27 -19 0
-14 -45 0
-40 -19 0
-14 -58 0
-53 -19 0
-27 -45 0
-40 -32 0
-27 -58 0
-53 -32 0
-40 -58 0
-53 -45 0
-1 -22 0
-14 -9 0
-1 -35 0
-27 -9 0
-1 -48 0
-40 -9 0
-1 -61 0
-53 -9 0
-14 -35 0
-27 -22 0
-14 -48 0
-40 -22 0
-14 -61 0
-53 -22 0
-27 -48 0
-40 -35 0
-27 -61 0
-53 -35 0
-40 -61 0
-53 -48 0
-2 -18 0
-15 -5 0
-2 -31 0
-28 -5 0
-2 -44 0
-41 -5 0
-2 -57 0
-54 -5 0
-15 -31 0
-28 -18 0
-15 -44 0
-41 -18 0
-15 -57 0
-54 -18 0
-28 -44 0
-41 -31 0
-28 -57 0
-54 -31 0
-41 -57 0
-54 -44 0
-2 -20 0
-15 -7 0
-2 -33 0
-28 -7 0
-2 -46 0
-41 -7 0
-2 -59 0
-54 -7 0
-15 -33 0
-28 -20 0
-15 -46 0
-41 -20 0
-15 -59 0
-54 -20 0
-28 -46 0
-41 -33 0
-28 -59 0
-54 -33 0
-41 -59 0
-54 -46 0
-2 -23 0
-15 -10 0
-2 -36 0
-28 -10 0
-2 -49 0
-41 -10 0
-2 -62 0
-54 -10 0
-15 -36 0
-28 -23 0
-15 -49 0
-41 -23 0
-15 -62 0
-54 -23 0
-28 -49 0
-41 -36 0
-28 -62 0
-54 -36 0
-41 -62 0
-54 -49 0
-3 -17 0
-16 -4 0
-3 -30 0
-29 -4 0
-3 -43 0
-42 -4 0
-3 -56 0
-55 -4 0
-16 -30 0
-29 -17 0
-16 -43 0
-42 -17 0
-16 -56 0
-55 -17 0
-29 -43 0
-42 -30 0
-29 -56 0
-55 -30 0
-42 -56 0
-55 -43 0
-3 -18 0
-16 -5 0
-3 -31 0
-29 -5 0
-3 -44 0
-42 -5 0
-3 -57 0
-55 -5 0
-16 -31 0
-29 -18 0
-16 -44 0
-42 -18 0
-16 -57 0
-55 -18 0
-29 -44 0
-42 -31 0
-29 -57 0
-55 -31 0
-42 -57 0
-55 -44 0
-3 -21 0
-16 -8 0
-3 -34 0
-29 -8 0
-3 -47 0
-42 -8 0
-3 -60 0
-55 -8 0
-16 -34 0
-29 -21 0
-16 -47 0
-42 -21 0
-16 -60 0
-55 -21 0
-29 -47 0
-42 -34 0
-29 -60 0
-55 -34 0
-42 -60 0
-55 -47 0
-3 -25 0
-16 -12 0
-3 -38 0
-29 -12 0
-3 -51 0
-42 -12 0
-3 -64 0
-55 -12 0
-16 -38 0
-29 -25 0
-16 -51 0
-42 -25 0
-16 -64 0
-55 -25 0
-29 -51 0
-42 -38 0
-29 -64 0
-55 -38 0
-42 -64 0
-55 -51 0
-4 -19 0
-17 -6 0
-4 -32 0
-30 -6 0
-4 -45 0
-43 -6 0
-4 -58 0
-56 -6 0
-17 -32 0
-30 -19 0
-17 -45 0
-43 -19 0
-17 -58 0
-56 -19 0
-30 -45 0
-43 -32 0
-30 -58 0
-56 -32 0
-43 -58 0
-56 -45 0
-4 -24 0
-17 -11 0
-4 -37 0
-30 -11 0
-4 -50 0
-43 -11 0
-4 -63 0
-56 -11 0
-17 -37 0
-30 -24 0
-17 -50 0
-43 -24 0
-17 -63 0
-56 -24 0
-30 -50 0
-43 -37 0
-30 -63 0
-56 -37 0
-43 -63 0
-56 -50 0
-4 -26 0
-17 -13 0
-4 -39 0
-30 -13 0
-4 -52 0
-43 -13 0
-4 -65 0
-56 -13 0
-17 -39 0
-30 -26 0
-17 -52 0
-43 -26 0
-17 -65 0
-56 -26 0
-30 -52 0
-43 -39 0
-30 -65 0
-56 -39 0
-43 -65 0
-56 -52 0
-5 -19 0
-18 -6 0
-5 -32 0
-31 -6 0
-5 -45 0
-44 -6 0
-5 -58 0
-57 -6 0
-18 -32 0
-31 -19 0
-18 -45 0
-44 -19 0
-18 -58 0
-57 -19 0
-31 -45 0
-44 -32 0
-31 -58 0
-57 -32 0
-44 -58 0
-57 -45 0
-5 -21 0
-18 -8 0
-5 -34 0
-31 -8 0
-5 -47 0
-44 -8 0
-5 -60 0
-57 -8 0
-18 -34 0
-31 -21 0
-18 -47 0
-44 -21 0
-18 -60 0
-57 -21 0
-31 -47 0
-44 -34 0
-31 -60 0
-57 -34 0
-44 -60 0
-57 -47 0
-5 -24 0
-18 -11 0
-5 -37 0
-31 -11 0
-5 -50 0
-44 -11 0
-5 -63 0
-57 -11 0
-18 -37 0
-31 -24 0
-18 -50 0
-44 -24 0
-18 -63 0
-57 -24 0
-31 -50 0
-44 -37 0
-31 -63 0
-57 -37 0
-44 -63 0
-57 -50 0
-6 -20 0
-19 -7 0
-6 -33 0
-32 -7 0
-6 -46 0
-45 -7 0
-6 -59 0
-58 -7 0
-19 -33 0
-32 -20 0
-19 -46 0
-45 -20 0
-19 -59 0
-58 -20 0
-32 -46 0
-45 -33 0
-32 -59 0
-58 -33 0
-45 -59 0
-58 -46 0
-6 -21 0
-19 -8 0
-6 -34 0
-32 -8 0
-6 -47 0
-45 -8 0
-6 -60 0
-58 -8 0
-19 -34 0
-32 -21 0
-19 -47 0
-45 -21 0
-19 -60 0
-58 -21 0
-32 -47 0
-45 -34 0
-32 -60 0
-58 -34 0
-45 -60 0
-58 -47 0
-6 -23 0
-19 -10 0
-6 -36 0
-32 -10 0
-6 -49 0
-45 -10 0
-6 -62 0
-58 -10 0
-19 -36 0
-32 -23 0
-19 -49 0
-45 -23 0
-19 -62 0
-58 -23 0
-32 -49 0
-45 -36 0
-32 -62 0
-58 -36 0
-45 -62 0
-58 -49 0
-6 -25 0
-19 -12 0
-6 -38 0
-32 -12 0
-6 -51 0
-45 -12 0
-6 -64 0
-58 -12 0
-19 -38 0
-32 -25 0
-19 -51 0
-45 -25 0
-19 -64 0
-58 -25 0
-32 -51 0
-45 -38 0
-32 -64 0
-58 -38 0
-45 -64 0
-58 -51 0
-7 -21 0
-20 -8 0
-7 -34 0
-33 -8 0
-7 -47 0
-46 -8 0
-7 -60 0
-59 -8 0
-20 -34 0
-33 -21 0
-20 -47 0
-46 -21 0
-20 -60 0
-59 -21 0
-33 -47 0
-46 -34 0
-33 -60 0
-59 -34 0
-46 -60 0
-59 -47 0
-7 -23 0
-20 -10 0
-7 -36 0
-33 -10 0
-7 -49 0
-46 -10 0
-7 -62 0
-59 -10 0
-20 -36 0
-33 -23 0
-20 -49 0
-46 -23 0
-20 -62 0
-59 -23 0
-33 -49 0
-46 -36 0
-33 -62 0
-59 -36 0
-46 -62 0
-59 -49 0
-7 -24 0
-20 -11 0
-7 -37 0
-33 -11 0
-7 -50 0
-46 -11 0
-7 -63 0
-59 -11 0
-20 -37 0
-33 -24 0
-20 -50 0
-46 -24 0
-20 -63 0
-59 -24 0
-33 -50 0
-46 -37 0
-33 -63 0
-59 -37 0
-46 -63 0
-59 -50 0
-7 -25 0
-20 -12 0
-7 -38 0
-33 -12 0
-7 -51 0
-46 -12 0
-7 -64 0
-59 -12 0
-20 -38 0
-33 -25 0
-20 -51 0
-46 -25 0
-20 -64 0
-59 -25 0
-33 -51 0
-46 -38 0
-33 -64 0
-59 -38 0
-46 -64 0
-59 -51 0
-8 -22 0
-21 -9 0
-8 -35 0
-34 -9 0
-8 -48 0
-47 -9 0
-8 -61 0
-60 -9 0
-21 -35 0
-34 -22 0
-21 -48 0
-47 -22 0
-21 -61 0
-60 -22 0
-34 -48 0
-47 -35 0
-34 -61 0
-60 -35 0
-47 -61 0
-60 -48 0
-8 -24 0
-21 -11 0
-8 -37 0
-34 -11 0
-8 -50 0
-47 -11 0
-8 -63 0
-60 -11 0
-21 -37 0
-34 -24 0
-21 -50 0
-47 -24 0
-21 -63 0
-60 -24 0
-34 -50 0
-47 -37 0
-34 -63 0
-60 -37 0
-47 -63 0
-60 -50 0
-9 -23 0
-22 -10 0
-9 -36 0
-35 -10 0
-9 -49 0
-48 -10 0
-9 -62 0
-61 -10 0
-22 -36 0
-35 -23 0
-22 -49 0
-48 -23 0
-22 -62 0
-61 -23 0
-35 -49 0
-48 -36 0
-35 -62 0
-61 -36 0
-48 -62 0
-61 -49 0
-10 -26 0
-23 -13 0
-10 -39 0
-36 -13 0
-10 -52 0
-49 -13 0
-10 -65 0
-62 -13 0
-23 -39 0
-36 -26 0
-23 -52 0
-49 -26 0
-23 -65 0
-62 -26 0
-36 -52 0
-49 -39 0
-36 -65 0
-62 -39 0
-49 -65 0
-62 -52 0
-11 -26 0
-24 -13 0
-11 -39 0
-37 -13 0
-11 -52 0
-50 -13 0
-11 -65 0
-63 -13 0
-24 -39 0
-37 -26 0
-24 -52 0
-50 -26 0
-24 -65 0
-63 -26 0
-37 -52 0
-50 -39 0
-37 -65 0
-63 -39 0
-50 -65 0
-63 -52 0
-12 -26 0
-25 -13 0
-12 -39 0
-38 -13 0
-12 -52 0
-51 -13 0
-12 -65 0
-64 -13 0
-25 -39 0
-38 -26 0
-25 -52 0
-51 -26 0
-25 -65 0
-64 -26 0
-38 -52 0
-51 -39 0
-38 -65 0
-64 -39 0
-51 -65 0
-64 -52 0
